decision_x1=[0,2];
decision_x2=[0,2];
decision_x3=[0,2];
decision_x4=[0,2];
decision_x5=[0,2];
random_y1=[0,2];
constraint_x2_x1=[
0,1,3.2|
0,2,1.4|
1,0,2.5|
1,2,7.3|
2,0,2.9|
2,1,3.6|
];
constraint_x3_x2=[
0,1,2.1|
0,2,5.9|
1,0,0.61|
1,2,5|
2,0,0.88|
2,1,7.6|
];
constraint_x4_x1=[
0,1,9.2|
0,2,9|
1,0,7.2|
1,2,9.3|
2,0,8.6|
2,1,6.5|
];
constraint_x4_x2=[
0,1,7.3|
0,2,2.1|
1,0,6|
1,2,7.8|
2,0,8|
2,1,5.1|
];
constraint_x5_x1=[
0,1,7|
0,2,0.73|
1,0,1.5|
1,2,5.1|
2,0,9.3|
2,1,3.7|
];
constraint_x1_y1=[
0,0,3|
0,1,8.9|
0,2,1.4|
1,0,4.4|
1,1,1.1|
1,2,9.8|
2,0,0.34|
2,1,6.9|
2,2,8.8|
];
initial_distribution_y1=[0.59,0.28,0.12];
transition_y1=[
0.45,0.21,0.34|
0.29,0.31,0.39|
0.38,0.48,0.15|
];
